(set-info :smt-lib-version 2.6)
(set-logic QF_LRA)
(set-info :source |
Specification and verification of a 8N1 decoder.
Geoffrey Brown, Indiana University <geobrown@cs.indiana.edu>
Lee Pike, Galois Connections, Inc. <leepike@galois.com> 

Translated into CVC format by Leonardo de Moura.

This benchmark was automatically translated into SMT-LIB format from
CVC format using CVC Lite



|)
(set-info :category "industrial")
(set-info :status unsat)
(declare-fun x_0 () Real)
(declare-fun x_1 () Real)
(declare-fun x_2 () Real)
(declare-fun x_3 () Real)
(declare-fun x_4 () Bool)
(declare-fun x_5 () Real)
(declare-fun x_6 () Real)
(declare-fun x_7 () Real)
(declare-fun x_8 () Real)
(declare-fun x_9 () Real)
(declare-fun x_10 () Bool)
(declare-fun x_11 () Real)
(declare-fun x_12 () Bool)
(declare-fun x_13 () Real)
(declare-fun x_14 () Bool)
(declare-fun x_15 () Real)
(declare-fun x_16 () Bool)
(declare-fun x_17 () Real)
(declare-fun x_18 () Bool)
(declare-fun x_19 () Real)
(declare-fun x_20 () Bool)
(declare-fun x_21 () Real)
(declare-fun x_22 () Real)
(declare-fun x_23 () Real)
(declare-fun x_24 () Real)
(declare-fun x_25 () Real)
(declare-fun x_26 () Real)
(declare-fun x_27 () Real)
(declare-fun x_28 () Real)
(declare-fun x_29 () Real)
(declare-fun x_30 () Real)
(declare-fun x_31 () Real)
(declare-fun x_32 () Real)
(declare-fun x_33 () Real)
(declare-fun x_34 () Real)
(declare-fun x_35 () Real)
(declare-fun x_36 () Real)
(declare-fun x_37 () Real)
(declare-fun x_38 () Real)
(declare-fun x_39 () Real)
(declare-fun x_40 () Real)
(declare-fun x_41 () Real)
(declare-fun x_42 () Real)
(declare-fun x_43 () Real)
(declare-fun x_44 () Real)
(declare-fun x_45 () Real)
(declare-fun x_46 () Real)
(declare-fun x_47 () Real)
(declare-fun x_48 () Real)
(declare-fun x_49 () Real)
(declare-fun x_50 () Real)
(declare-fun x_51 () Real)
(declare-fun x_52 () Real)
(declare-fun x_53 () Real)
(declare-fun x_54 () Real)
(declare-fun x_55 () Real)
(declare-fun x_56 () Real)
(declare-fun x_57 () Real)
(declare-fun x_58 () Real)
(declare-fun x_59 () Real)
(declare-fun x_60 () Real)
(declare-fun x_61 () Real)
(declare-fun x_62 () Real)
(declare-fun x_63 () Real)
(declare-fun x_64 () Real)
(declare-fun x_65 () Real)
(declare-fun x_66 () Real)
(declare-fun x_67 () Real)
(declare-fun x_68 () Real)
(declare-fun x_69 () Real)
(declare-fun x_70 () Real)
(declare-fun x_71 () Real)
(declare-fun x_72 () Real)
(declare-fun x_73 () Real)
(declare-fun x_74 () Real)
(declare-fun x_75 () Real)
(declare-fun x_76 () Real)
(declare-fun x_77 () Real)
(declare-fun x_78 () Real)
(declare-fun x_79 () Real)
(declare-fun x_80 () Real)
(declare-fun x_81 () Real)
(declare-fun x_82 () Real)
(declare-fun x_83 () Real)
(declare-fun x_84 () Real)
(declare-fun x_85 () Real)
(declare-fun x_86 () Real)
(declare-fun x_87 () Real)
(declare-fun x_88 () Real)
(declare-fun x_89 () Real)
(declare-fun x_90 () Real)
(declare-fun x_91 () Real)
(declare-fun x_92 () Real)
(declare-fun x_93 () Real)
(declare-fun x_94 () Real)
(declare-fun x_95 () Real)
(declare-fun x_96 () Real)
(declare-fun x_97 () Real)
(declare-fun x_98 () Real)
(declare-fun x_99 () Real)
(declare-fun x_100 () Real)
(declare-fun x_101 () Real)
(declare-fun x_102 () Real)
(declare-fun x_103 () Real)
(declare-fun x_104 () Real)
(declare-fun x_105 () Real)
(declare-fun x_106 () Real)
(declare-fun x_107 () Real)
(declare-fun x_108 () Real)
(declare-fun x_109 () Real)
(declare-fun x_110 () Real)
(declare-fun x_111 () Real)
(declare-fun x_112 () Real)
(declare-fun x_113 () Real)
(assert (let ((?v_15 (not x_18))) (let ((?v_17 (and ?v_15 (< x_19 8))) (?v_56 (not x_16))) (let ((?v_58 (and ?v_56 (< x_17 8))) (?v_94 (not x_14))) (let ((?v_96 (and ?v_94 (< x_15 8))) (?v_132 (not x_12))) (let ((?v_134 (and ?v_132 (< x_13 8))) (?v_170 (not x_10))) (let ((?v_172 (and ?v_170 (< x_11 8))) (?v_208 (not x_4))) (let ((?v_211 (and ?v_208 (< x_8 8))) (?v_196 (= x_1 10)) (?v_201 (= x_22 1)) (?v_203 (= x_10 x_4)) (?v_204 (= x_23 x_5)) (?v_205 (= x_24 x_25)) (?v_207 (= x_26 x_7)) (?v_212 (= x_8 9)) (?v_213 (= x_24 1)) (?v_199 (= x_7 1))) (let ((?v_214 (not ?v_199)) (?v_215 (not (= x_7 0))) (?v_216 (= x_7 3)) (?v_217 (= x_7 2)) (?v_206 (= x_11 x_8)) (?v_197 (= x_28 x_29)) (?v_219 (= x_22 x_0)) (?v_198 (= x_30 x_1)) (?v_220 (= x_31 x_2)) (?v_222 (< x_1 9)) (?v_221 (= x_9 2)) (?v_225 (= x_8 x_1)) (?v_233 (not (= x_29 x_25))) (?v_228 (= x_32 1)) (?v_160 (= x_30 10)) (?v_162 (= x_39 1)) (?v_164 (= x_12 x_10)) (?v_165 (= x_40 x_23)) (?v_169 (= x_27 x_23)) (?v_166 (= x_41 x_24)) (?v_168 (= x_42 x_26)) (?v_173 (= x_11 9)) (?v_174 (= x_41 1)) (?v_175 (not (= x_26 1))) (?v_176 (not (= x_26 0))) (?v_177 (= x_26 3)) (?v_178 (= x_26 2)) (?v_167 (= x_13 x_11)) (?v_179 (= x_43 x_27)) (?v_158 (= x_44 x_28)) (?v_180 (= x_39 x_22)) (?v_159 (= x_45 x_30)) (?v_181 (= x_46 x_31)) (?v_182 (< x_30 9)) (?v_184 (= x_32 2)) (?v_183 (= x_27 x_31)) (?v_188 (= x_23 x_27))) (let ((?v_190 (not ?v_188)) (?v_186 (= x_11 x_30)) (?v_194 (not (= x_28 x_24))) (?v_189 (= x_47 1)) (?v_122 (= x_45 10)) (?v_124 (= x_54 1)) (?v_126 (= x_14 x_12)) (?v_127 (= x_55 x_40)) (?v_131 (= x_43 x_40)) (?v_128 (= x_56 x_41)) (?v_130 (= x_57 x_42)) (?v_135 (= x_13 9)) (?v_136 (= x_56 1)) (?v_137 (not (= x_42 1))) (?v_138 (not (= x_42 0))) (?v_139 (= x_42 3)) (?v_140 (= x_42 2)) (?v_129 (= x_15 x_13)) (?v_141 (= x_58 x_43)) (?v_120 (= x_59 x_44)) (?v_142 (= x_54 x_39)) (?v_121 (= x_60 x_45)) (?v_143 (= x_61 x_46)) (?v_144 (< x_45 9)) (?v_146 (= x_47 2)) (?v_145 (= x_43 x_46)) (?v_150 (= x_40 x_43))) (let ((?v_152 (not ?v_150)) (?v_148 (= x_13 x_45)) (?v_156 (not (= x_44 x_41))) (?v_151 (= x_62 1)) (?v_84 (= x_60 10)) (?v_86 (= x_69 1)) (?v_88 (= x_16 x_14)) (?v_89 (= x_70 x_55)) (?v_93 (= x_58 x_55)) (?v_90 (= x_71 x_56)) (?v_92 (= x_72 x_57)) (?v_97 (= x_15 9)) (?v_98 (= x_71 1)) (?v_99 (not (= x_57 1))) (?v_100 (not (= x_57 0))) (?v_101 (= x_57 3)) (?v_102 (= x_57 2)) (?v_91 (= x_17 x_15)) (?v_103 (= x_73 x_58)) (?v_82 (= x_74 x_59)) (?v_104 (= x_69 x_54)) (?v_83 (= x_75 x_60)) (?v_105 (= x_76 x_61)) (?v_106 (< x_60 9)) (?v_108 (= x_62 2)) (?v_107 (= x_58 x_61)) (?v_112 (= x_55 x_58))) (let ((?v_114 (not ?v_112)) (?v_110 (= x_15 x_60)) (?v_118 (not (= x_59 x_56))) (?v_113 (= x_77 1)) (?v_42 (= x_75 10)) (?v_44 (= x_84 1)) (?v_50 (= x_18 x_16)) (?v_51 (= x_85 x_70)) (?v_55 (= x_73 x_70)) (?v_52 (= x_86 x_71)) (?v_54 (= x_87 x_72)) (?v_59 (= x_17 9)) (?v_60 (= x_86 1)) (?v_61 (not (= x_72 1))) (?v_62 (not (= x_72 0))) (?v_63 (= x_72 3)) (?v_64 (= x_72 2)) (?v_53 (= x_19 x_17)) (?v_65 (= x_88 x_73)) (?v_40 (= x_89 x_74)) (?v_66 (= x_84 x_69)) (?v_41 (= x_90 x_75)) (?v_67 (= x_91 x_76)) (?v_68 (< x_75 9)) (?v_70 (= x_77 2)) (?v_69 (= x_73 x_76)) (?v_74 (= x_70 x_73))) (let ((?v_76 (not ?v_74)) (?v_72 (= x_17 x_75)) (?v_80 (not (= x_74 x_71))) (?v_75 (= x_92 1)) (?v_2 (= x_90 10)) (?v_4 (= x_99 1)) (?v_8 (= x_20 x_18)) (?v_9 (= x_100 x_85)) (?v_13 (= x_88 x_85)) (?v_10 (= x_101 x_86)) (?v_12 (= x_102 x_87)) (?v_18 (= x_19 9)) (?v_19 (= x_101 1)) (?v_20 (not (= x_87 1))) (?v_21 (not (= x_87 0))) (?v_22 (= x_87 3)) (?v_23 (= x_87 2)) (?v_11 (= x_21 x_19)) (?v_24 (= x_103 x_88)) (?v_0 (= x_104 x_89)) (?v_25 (= x_99 x_84)) (?v_1 (= x_105 x_90)) (?v_26 (= x_106 x_91)) (?v_27 (< x_90 9)) (?v_29 (= x_92 2)) (?v_28 (= x_88 x_91)) (?v_33 (= x_85 x_88))) (let ((?v_34 (not ?v_33)) (?v_31 (= x_19 x_90)) (?v_38 (not (= x_89 x_86))) (?v_35 (= x_107 1)) (?v_210 (not (< x_24 0))) (?v_171 (not (< x_41 0))) (?v_133 (not (< x_56 0))) (?v_95 (not (< x_71 0))) (?v_57 (not (< x_86 0))) (?v_16 (not (< x_101 0))) (?v_3 (= x_99 0)) (?v_5 (= x_105 1)) (?v_77 (= x_92 0)) (?v_43 (= x_84 0)) (?v_45 (= x_90 1)) (?v_115 (= x_77 0)) (?v_85 (= x_69 0)) (?v_87 (= x_75 1)) (?v_153 (= x_62 0)) (?v_123 (= x_54 0)) (?v_125 (= x_60 1)) (?v_191 (= x_47 0)) (?v_161 (= x_39 0)) (?v_163 (= x_45 1)) (?v_230 (= x_32 0)) (?v_200 (= x_22 0)) (?v_202 (= x_30 1)) (?v_235 (= x_9 1)) (?v_36 (not ?v_27)) (?v_37 (and ?v_27 (not ?v_28))) (?v_32 (and ?v_27 ?v_28))) (let ((?v_30 (and ?v_32 ?v_34))) (let ((?v_39 (and ?v_30 ?v_31)) (?v_78 (not ?v_68)) (?v_79 (and ?v_68 (not ?v_69))) (?v_73 (and ?v_68 ?v_69))) (let ((?v_71 (and ?v_73 ?v_76))) (let ((?v_81 (and ?v_71 ?v_72)) (?v_116 (not ?v_106)) (?v_117 (and ?v_106 (not ?v_107))) (?v_111 (and ?v_106 ?v_107))) (let ((?v_109 (and ?v_111 ?v_114))) (let ((?v_119 (and ?v_109 ?v_110)) (?v_154 (not ?v_144)) (?v_155 (and ?v_144 (not ?v_145))) (?v_149 (and ?v_144 ?v_145))) (let ((?v_147 (and ?v_149 ?v_152))) (let ((?v_157 (and ?v_147 ?v_148)) (?v_192 (not ?v_182)) (?v_193 (and ?v_182 (not ?v_183))) (?v_187 (and ?v_182 ?v_183))) (let ((?v_185 (and ?v_187 ?v_190))) (let ((?v_195 (and ?v_185 ?v_186)) (?v_223 (= 0 x_2)) (?v_218 (= x_27 0)) (?v_209 (= 0 x_5)) (?v_231 (not ?v_222))) (let ((?v_232 (and ?v_222 (not ?v_223))) (?v_226 (and ?v_222 ?v_223)) (?v_227 (= x_5 0))) (let ((?v_229 (not ?v_227))) (let ((?v_224 (and ?v_226 ?v_229))) (let ((?v_234 (and ?v_224 ?v_225)) (?v_7 (+ x_3 1)) (?v_14 (- 16 x_6)) (?v_6 (- 1 x_3))) (let ((?v_46 (* ?v_6 23)) (?v_47 (* ?v_7 23)) (?v_48 (* ?v_6 16)) (?v_49 (* ?v_7 16))) (and (and (and (and (and (and (and (and (and (and (and (and (and (and (and (and (and (and (and (and (and (and (and (and (and (and (and (and (and (and (and (and (and (and (and (and (and (and (and (and (and (and (and (and (and (and (and (and (and (and (and (and (and (and (and (and (and (and (and (and (and (and (and (and (and (and (and (and (and (and (and (and (and (and (and (and (and (and (and (and (and (and (and (and (and (and (and (and (and (and (and (and (and (and (and (and (and (and (and (and (and (and (and (and (and (and (and (and (and (and (and (and (and (and (and (and (and (and (and (and (and (and (and (and (<= x_102 3) (>= x_102 0)) (<= x_99 3)) (>= x_99 0)) (<= x_87 3)) (>= x_87 0)) (<= x_84 3)) (>= x_84 0)) (<= x_72 3)) (>= x_72 0)) (<= x_69 3)) (>= x_69 0)) (<= x_57 3)) (>= x_57 0)) (<= x_54 3)) (>= x_54 0)) (<= x_42 3)) (>= x_42 0)) (<= x_39 3)) (>= x_39 0)) (<= x_26 3)) (>= x_26 0)) (<= x_22 3)) (>= x_22 0)) (<= x_7 3)) (>= x_7 0)) (<= x_0 3)) (>= x_0 0)) (not (< x_1 1))) (<= x_1 10)) (>= x_3 0)) (< x_3 (/ 3 151))) (>= x_6 0)) (< x_6 4)) (not (< x_8 0))) (<= x_8 9)) (not (< x_9 0))) (<= x_9 2)) (not (< x_11 0))) (<= x_11 9)) (not (< x_13 0))) (<= x_13 9)) (not (< x_15 0))) (<= x_15 9)) (not (< x_17 0))) (<= x_17 9)) (not (< x_19 0))) (<= x_19 9)) (not (< x_21 0))) (<= x_21 9)) ?v_210) (<= x_24 1)) (not (< x_25 0))) (<= x_25 1)) (not (< x_28 0))) (<= x_28 1)) (not (< x_29 0))) (<= x_29 1)) (not (< x_30 1))) (<= x_30 10)) (not (< x_32 0))) (<= x_32 2)) ?v_171) (<= x_41 1)) (not (< x_44 0))) (<= x_44 1)) (not (< x_45 1))) (<= x_45 10)) (not (< x_47 0))) (<= x_47 2)) ?v_133) (<= x_56 1)) (not (< x_59 0))) (<= x_59 1)) (not (< x_60 1))) (<= x_60 10)) (not (< x_62 0))) (<= x_62 2)) ?v_95) (<= x_71 1)) (not (< x_74 0))) (<= x_74 1)) (not (< x_75 1))) (<= x_75 10)) (not (< x_77 0))) (<= x_77 2)) ?v_57) (<= x_86 1)) (not (< x_89 0))) (<= x_89 1)) (not (< x_90 1))) (<= x_90 10)) (not (< x_92 0))) (<= x_92 2)) ?v_16) (<= x_101 1)) (not (< x_104 0))) (<= x_104 1)) (not (< x_105 1))) (<= x_105 10)) (not (< x_107 0))) (<= x_107 2)) (= x_0 1)) ?v_196) (>= x_2 0)) (< x_2 ?v_7)) ?v_208) (>= x_5 0)) (<= x_5 ?v_14)) ?v_199) ?v_212) ?v_221) (or (or (and (and (and (and (and (and (and (and (and (and (= x_108 0) (or (and (and (and (= x_109 0) (< x_88 x_91)) (<= x_91 x_85)) (= x_103 x_91)) (and (and (and (= x_109 1) (< x_88 x_85)) (<= x_85 x_91)) (= x_103 x_85)))) ?v_0) ?v_25) ?v_1) ?v_26) ?v_8) ?v_9) ?v_10) ?v_11) ?v_12) (and (and (and (and (and (and (and (and (and (= x_108 1) (or (or (and (and (and (and (and (= x_110 0) ?v_2) ?v_21) ?v_4) ?v_0) ?v_1) (and (and (and (and (and (= x_110 1) ?v_2) ?v_20) ?v_3) ?v_5) ?v_0)) (and (and (and (and (= x_110 2) (not ?v_2)) (ite (or ?v_23 ?v_22) (or ?v_3 ?v_4) (= x_99 x_87))) (= x_105 (+ x_90 1))) (= x_104 (ite ?v_4 1 0))))) ?v_28) (ite (= x_105 10) (and (<= (+ x_88 ?v_6) x_106) (<= x_106 (+ (+ x_88 x_3) 1))) (ite ?v_5 (and (<= (+ x_88 ?v_46) x_106) (<= x_106 (+ x_88 ?v_47))) (and (<= (+ x_88 ?v_48) x_106) (<= x_106 (+ x_88 ?v_49)))))) ?v_24) ?v_8) ?v_9) ?v_10) ?v_11) ?v_12)) (and (and (and (and (and (and (and (and (= x_108 2) (or (and (and (and (and (= x_111 0) ?v_13) ?v_15) (= x_100 (+ x_88 x_6))) x_20) (and (and (and (and (= x_111 1) ?v_13) x_18) (= x_100 (+ x_88 ?v_14))) (not x_20)))) (or (and (and (and (= x_112 0) ?v_17) (or (= x_101 0) ?v_19)) ?v_16) (and (and (= x_112 1) (not ?v_17)) ?v_10))) (or (or (or (and (and (and (and (= x_113 0) ?v_15) ?v_18) (= x_21 9)) ?v_12) (and (and (and (and (= x_113 1) ?v_15) ?v_18) (= x_102 2)) (= x_21 0))) (and (and (and (and (= x_113 2) ?v_15) (< x_19 9)) (= x_102 (ite (or ?v_19 (= x_19 8)) (ite ?v_20 3 x_87) (ite ?v_21 2 x_87)))) (= x_21 (+ x_19 1)))) (and (and (and (= x_113 3) x_18) (= x_102 (ite ?v_22 1 (ite ?v_23 0 x_87)))) ?v_11))) ?v_24) ?v_0) ?v_25) ?v_1) ?v_26))) (or (or (or (or (and (and ?v_29 (or (or ?v_36 ?v_37) ?v_39)) (= x_107 2)) (and (and ?v_29 (or (and ?v_30 (not ?v_31)) (and ?v_32 ?v_33))) ?v_35)) (and (and (and (and (and ?v_29 ?v_27) ?v_28) ?v_34) ?v_31) (= x_107 0))) (and ?v_75 ?v_35)) (and (and ?v_77 (or (or (and ?v_36 ?v_38) (and ?v_37 ?v_38)) (and ?v_39 ?v_38))) ?v_35))) (or (or (and (and (and (and (and (and (and (and (and (and (= x_93 0) (or (and (and (and (= x_94 0) (< x_73 x_76)) (<= x_76 x_70)) (= x_88 x_76)) (and (and (and (= x_94 1) (< x_73 x_70)) (<= x_70 x_76)) (= x_88 x_70)))) ?v_40) ?v_66) ?v_41) ?v_67) ?v_50) ?v_51) ?v_52) ?v_53) ?v_54) (and (and (and (and (and (and (and (and (and (= x_93 1) (or (or (and (and (and (and (and (= x_95 0) ?v_42) ?v_62) ?v_44) ?v_40) ?v_41) (and (and (and (and (and (= x_95 1) ?v_42) ?v_61) ?v_43) ?v_45) ?v_40)) (and (and (and (and (= x_95 2) (not ?v_42)) (ite (or ?v_64 ?v_63) (or ?v_43 ?v_44) (= x_84 x_72))) (= x_90 (+ x_75 1))) (= x_89 (ite ?v_44 1 0))))) ?v_69) (ite ?v_2 (and (<= (+ x_73 ?v_6) x_91) (<= x_91 (+ (+ x_73 x_3) 1))) (ite ?v_45 (and (<= (+ x_73 ?v_46) x_91) (<= x_91 (+ x_73 ?v_47))) (and (<= (+ x_73 ?v_48) x_91) (<= x_91 (+ x_73 ?v_49)))))) ?v_65) ?v_50) ?v_51) ?v_52) ?v_53) ?v_54)) (and (and (and (and (and (and (and (and (= x_93 2) (or (and (and (and (and (= x_96 0) ?v_55) ?v_56) (= x_85 (+ x_73 x_6))) x_18) (and (and (and (and (= x_96 1) ?v_55) x_16) (= x_85 (+ x_73 ?v_14))) ?v_15))) (or (and (and (and (= x_97 0) ?v_58) (or (= x_86 0) ?v_60)) ?v_57) (and (and (= x_97 1) (not ?v_58)) ?v_52))) (or (or (or (and (and (and (and (= x_98 0) ?v_56) ?v_59) ?v_18) ?v_54) (and (and (and (and (= x_98 1) ?v_56) ?v_59) ?v_23) (= x_19 0))) (and (and (and (and (= x_98 2) ?v_56) (< x_17 9)) (= x_87 (ite (or ?v_60 (= x_17 8)) (ite ?v_61 3 x_72) (ite ?v_62 2 x_72)))) (= x_19 (+ x_17 1)))) (and (and (and (= x_98 3) x_16) (= x_87 (ite ?v_63 1 (ite ?v_64 0 x_72)))) ?v_53))) ?v_65) ?v_40) ?v_66) ?v_41) ?v_67))) (or (or (or (or (and (and ?v_70 (or (or ?v_78 ?v_79) ?v_81)) ?v_29) (and (and ?v_70 (or (and ?v_71 (not ?v_72)) (and ?v_73 ?v_74))) ?v_75)) (and (and (and (and (and ?v_70 ?v_68) ?v_69) ?v_76) ?v_72) ?v_77)) (and ?v_113 ?v_75)) (and (and ?v_115 (or (or (and ?v_78 ?v_80) (and ?v_79 ?v_80)) (and ?v_81 ?v_80))) ?v_75))) (or (or (and (and (and (and (and (and (and (and (and (and (= x_78 0) (or (and (and (and (= x_79 0) (< x_58 x_61)) (<= x_61 x_55)) (= x_73 x_61)) (and (and (and (= x_79 1) (< x_58 x_55)) (<= x_55 x_61)) (= x_73 x_55)))) ?v_82) ?v_104) ?v_83) ?v_105) ?v_88) ?v_89) ?v_90) ?v_91) ?v_92) (and (and (and (and (and (and (and (and (and (= x_78 1) (or (or (and (and (and (and (and (= x_80 0) ?v_84) ?v_100) ?v_86) ?v_82) ?v_83) (and (and (and (and (and (= x_80 1) ?v_84) ?v_99) ?v_85) ?v_87) ?v_82)) (and (and (and (and (= x_80 2) (not ?v_84)) (ite (or ?v_102 ?v_101) (or ?v_85 ?v_86) (= x_69 x_57))) (= x_75 (+ x_60 1))) (= x_74 (ite ?v_86 1 0))))) ?v_107) (ite ?v_42 (and (<= (+ x_58 ?v_6) x_76) (<= x_76 (+ (+ x_58 x_3) 1))) (ite ?v_87 (and (<= (+ x_58 ?v_46) x_76) (<= x_76 (+ x_58 ?v_47))) (and (<= (+ x_58 ?v_48) x_76) (<= x_76 (+ x_58 ?v_49)))))) ?v_103) ?v_88) ?v_89) ?v_90) ?v_91) ?v_92)) (and (and (and (and (and (and (and (and (= x_78 2) (or (and (and (and (and (= x_81 0) ?v_93) ?v_94) (= x_70 (+ x_58 x_6))) x_16) (and (and (and (and (= x_81 1) ?v_93) x_14) (= x_70 (+ x_58 ?v_14))) ?v_56))) (or (and (and (and (= x_82 0) ?v_96) (or (= x_71 0) ?v_98)) ?v_95) (and (and (= x_82 1) (not ?v_96)) ?v_90))) (or (or (or (and (and (and (and (= x_83 0) ?v_94) ?v_97) ?v_59) ?v_92) (and (and (and (and (= x_83 1) ?v_94) ?v_97) ?v_64) (= x_17 0))) (and (and (and (and (= x_83 2) ?v_94) (< x_15 9)) (= x_72 (ite (or ?v_98 (= x_15 8)) (ite ?v_99 3 x_57) (ite ?v_100 2 x_57)))) (= x_17 (+ x_15 1)))) (and (and (and (= x_83 3) x_14) (= x_72 (ite ?v_101 1 (ite ?v_102 0 x_57)))) ?v_91))) ?v_103) ?v_82) ?v_104) ?v_83) ?v_105))) (or (or (or (or (and (and ?v_108 (or (or ?v_116 ?v_117) ?v_119)) ?v_70) (and (and ?v_108 (or (and ?v_109 (not ?v_110)) (and ?v_111 ?v_112))) ?v_113)) (and (and (and (and (and ?v_108 ?v_106) ?v_107) ?v_114) ?v_110) ?v_115)) (and ?v_151 ?v_113)) (and (and ?v_153 (or (or (and ?v_116 ?v_118) (and ?v_117 ?v_118)) (and ?v_119 ?v_118))) ?v_113))) (or (or (and (and (and (and (and (and (and (and (and (and (= x_63 0) (or (and (and (and (= x_64 0) (< x_43 x_46)) (<= x_46 x_40)) (= x_58 x_46)) (and (and (and (= x_64 1) (< x_43 x_40)) (<= x_40 x_46)) (= x_58 x_40)))) ?v_120) ?v_142) ?v_121) ?v_143) ?v_126) ?v_127) ?v_128) ?v_129) ?v_130) (and (and (and (and (and (and (and (and (and (= x_63 1) (or (or (and (and (and (and (and (= x_65 0) ?v_122) ?v_138) ?v_124) ?v_120) ?v_121) (and (and (and (and (and (= x_65 1) ?v_122) ?v_137) ?v_123) ?v_125) ?v_120)) (and (and (and (and (= x_65 2) (not ?v_122)) (ite (or ?v_140 ?v_139) (or ?v_123 ?v_124) (= x_54 x_42))) (= x_60 (+ x_45 1))) (= x_59 (ite ?v_124 1 0))))) ?v_145) (ite ?v_84 (and (<= (+ x_43 ?v_6) x_61) (<= x_61 (+ (+ x_43 x_3) 1))) (ite ?v_125 (and (<= (+ x_43 ?v_46) x_61) (<= x_61 (+ x_43 ?v_47))) (and (<= (+ x_43 ?v_48) x_61) (<= x_61 (+ x_43 ?v_49)))))) ?v_141) ?v_126) ?v_127) ?v_128) ?v_129) ?v_130)) (and (and (and (and (and (and (and (and (= x_63 2) (or (and (and (and (and (= x_66 0) ?v_131) ?v_132) (= x_55 (+ x_43 x_6))) x_14) (and (and (and (and (= x_66 1) ?v_131) x_12) (= x_55 (+ x_43 ?v_14))) ?v_94))) (or (and (and (and (= x_67 0) ?v_134) (or (= x_56 0) ?v_136)) ?v_133) (and (and (= x_67 1) (not ?v_134)) ?v_128))) (or (or (or (and (and (and (and (= x_68 0) ?v_132) ?v_135) ?v_97) ?v_130) (and (and (and (and (= x_68 1) ?v_132) ?v_135) ?v_102) (= x_15 0))) (and (and (and (and (= x_68 2) ?v_132) (< x_13 9)) (= x_57 (ite (or ?v_136 (= x_13 8)) (ite ?v_137 3 x_42) (ite ?v_138 2 x_42)))) (= x_15 (+ x_13 1)))) (and (and (and (= x_68 3) x_12) (= x_57 (ite ?v_139 1 (ite ?v_140 0 x_42)))) ?v_129))) ?v_141) ?v_120) ?v_142) ?v_121) ?v_143))) (or (or (or (or (and (and ?v_146 (or (or ?v_154 ?v_155) ?v_157)) ?v_108) (and (and ?v_146 (or (and ?v_147 (not ?v_148)) (and ?v_149 ?v_150))) ?v_151)) (and (and (and (and (and ?v_146 ?v_144) ?v_145) ?v_152) ?v_148) ?v_153)) (and ?v_189 ?v_151)) (and (and ?v_191 (or (or (and ?v_154 ?v_156) (and ?v_155 ?v_156)) (and ?v_157 ?v_156))) ?v_151))) (or (or (and (and (and (and (and (and (and (and (and (and (= x_48 0) (or (and (and (and (= x_49 0) (< x_27 x_31)) (<= x_31 x_23)) (= x_43 x_31)) (and (and (and (= x_49 1) (< x_27 x_23)) (<= x_23 x_31)) (= x_43 x_23)))) ?v_158) ?v_180) ?v_159) ?v_181) ?v_164) ?v_165) ?v_166) ?v_167) ?v_168) (and (and (and (and (and (and (and (and (and (= x_48 1) (or (or (and (and (and (and (and (= x_50 0) ?v_160) ?v_176) ?v_162) ?v_158) ?v_159) (and (and (and (and (and (= x_50 1) ?v_160) ?v_175) ?v_161) ?v_163) ?v_158)) (and (and (and (and (= x_50 2) (not ?v_160)) (ite (or ?v_178 ?v_177) (or ?v_161 ?v_162) (= x_39 x_26))) (= x_45 (+ x_30 1))) (= x_44 (ite ?v_162 1 0))))) ?v_183) (ite ?v_122 (and (<= (+ x_27 ?v_6) x_46) (<= x_46 (+ (+ x_27 x_3) 1))) (ite ?v_163 (and (<= (+ x_27 ?v_46) x_46) (<= x_46 (+ x_27 ?v_47))) (and (<= (+ x_27 ?v_48) x_46) (<= x_46 (+ x_27 ?v_49)))))) ?v_179) ?v_164) ?v_165) ?v_166) ?v_167) ?v_168)) (and (and (and (and (and (and (and (and (= x_48 2) (or (and (and (and (and (= x_51 0) ?v_169) ?v_170) (= x_40 (+ x_27 x_6))) x_12) (and (and (and (and (= x_51 1) ?v_169) x_10) (= x_40 (+ x_27 ?v_14))) ?v_132))) (or (and (and (and (= x_52 0) ?v_172) (or (= x_41 0) ?v_174)) ?v_171) (and (and (= x_52 1) (not ?v_172)) ?v_166))) (or (or (or (and (and (and (and (= x_53 0) ?v_170) ?v_173) ?v_135) ?v_168) (and (and (and (and (= x_53 1) ?v_170) ?v_173) ?v_140) (= x_13 0))) (and (and (and (and (= x_53 2) ?v_170) (< x_11 9)) (= x_42 (ite (or ?v_174 (= x_11 8)) (ite ?v_175 3 x_26) (ite ?v_176 2 x_26)))) (= x_13 (+ x_11 1)))) (and (and (and (= x_53 3) x_10) (= x_42 (ite ?v_177 1 (ite ?v_178 0 x_26)))) ?v_167))) ?v_179) ?v_158) ?v_180) ?v_159) ?v_181))) (or (or (or (or (and (and ?v_184 (or (or ?v_192 ?v_193) ?v_195)) ?v_146) (and (and ?v_184 (or (and ?v_185 (not ?v_186)) (and ?v_187 ?v_188))) ?v_189)) (and (and (and (and (and ?v_184 ?v_182) ?v_183) ?v_190) ?v_186) ?v_191)) (and ?v_228 ?v_189)) (and (and ?v_230 (or (or (and ?v_192 ?v_194) (and ?v_193 ?v_194)) (and ?v_195 ?v_194))) ?v_189))) (or (or (and (and (and (and (and (and (and (and (and (and (= x_33 0) (or (and (and (and (= x_34 0) (> x_2 0)) (<= x_2 x_5)) (= x_27 x_2)) (and (and (and (= x_34 1) (> x_5 0)) (<= x_5 x_2)) (= x_27 x_5)))) ?v_197) ?v_219) ?v_198) ?v_220) ?v_203) ?v_204) ?v_205) ?v_206) ?v_207) (and (and (and (and (and (and (and (and (and (= x_33 1) (or (or (and (and (and (and (and (= x_35 0) ?v_196) ?v_215) ?v_201) ?v_197) ?v_198) (and (and (and (and (and (= x_35 1) ?v_196) ?v_214) ?v_200) ?v_202) ?v_197)) (and (and (and (and (= x_35 2) (not ?v_196)) (ite (or ?v_217 ?v_216) (or ?v_200 ?v_201) (= x_22 x_7))) (= x_30 (+ x_1 1))) (= x_28 (ite ?v_201 1 0))))) ?v_223) (ite ?v_160 (and (<= (+ 0 ?v_6) x_31) (<= x_31 (+ (+ 0 x_3) 1))) (ite ?v_202 (and (<= (+ 0 ?v_46) x_31) (<= x_31 (+ 0 ?v_47))) (and (<= (+ 0 ?v_48) x_31) (<= x_31 (+ 0 ?v_49)))))) ?v_218) ?v_203) ?v_204) ?v_205) ?v_206) ?v_207)) (and (and (and (and (and (and (and (and (= x_33 2) (or (and (and (and (and (= x_36 0) ?v_209) ?v_208) (= x_23 (+ 0 x_6))) x_10) (and (and (and (and (= x_36 1) ?v_209) x_4) (= x_23 (+ 0 ?v_14))) ?v_170))) (or (and (and (and (= x_37 0) ?v_211) (or (= x_24 0) ?v_213)) ?v_210) (and (and (= x_37 1) (not ?v_211)) ?v_205))) (or (or (or (and (and (and (and (= x_38 0) ?v_208) ?v_212) ?v_173) ?v_207) (and (and (and (and (= x_38 1) ?v_208) ?v_212) ?v_178) (= x_11 0))) (and (and (and (and (= x_38 2) ?v_208) (< x_8 9)) (= x_26 (ite (or ?v_213 (= x_8 8)) (ite ?v_214 3 x_7) (ite ?v_215 2 x_7)))) (= x_11 (+ x_8 1)))) (and (and (and (= x_38 3) x_4) (= x_26 (ite ?v_216 1 (ite ?v_217 0 x_7)))) ?v_206))) ?v_218) ?v_197) ?v_219) ?v_198) ?v_220))) (or (or (or (or (and (and ?v_221 (or (or ?v_231 ?v_232) ?v_234)) ?v_184) (and (and ?v_221 (or (and ?v_224 (not ?v_225)) (and ?v_226 ?v_227))) ?v_228)) (and (and (and (and (and ?v_221 ?v_222) ?v_223) ?v_229) ?v_225) ?v_230)) (and ?v_235 ?v_228)) (and (and (= x_9 0) (or (or (and ?v_231 ?v_233) (and ?v_232 ?v_233)) (and ?v_234 ?v_233))) ?v_228))) (or (or (or (or (or (or ?v_35 ?v_75) ?v_113) ?v_151) ?v_189) ?v_228) ?v_235)))))))))))))))))))))))))))))))
(check-sat)
(exit)
